Version identifier: 22.1.0.0 | 2022-03-09 | 1a383f8ce
CPXPARAM_Threads                                 1
CPXPARAM_MIP_Strategy_VariableSelect             3
CPXPARAM_TimeLimit                               599.999970674
1 of 1 MIP starts provided solutions.
MIP start 'm1' defined initial solution with objective 1.0000.
Tried aggregator 1 time.
MIP Presolve eliminated 13 rows and 0 columns.
MIP Presolve modified 204 coefficients.
Reduced MIP has 613 rows, 2600 columns, and 32613 nonzeros.
Reduced MIP has 2600 binaries, 0 generals, 0 SOSs, and 0 indicators.
Presolve time = 0.07 sec. (65.92 ticks)
Probing time = 0.01 sec. (9.54 ticks)
Tried aggregator 1 time.
Detecting symmetries...
MIP Presolve modified 11 coefficients.
Reduced MIP has 613 rows, 2600 columns, and 33013 nonzeros.
Reduced MIP has 2600 binaries, 0 generals, 0 SOSs, and 0 indicators.
Presolve time = 0.04 sec. (34.55 ticks)
Probing time = 0.01 sec. (9.61 ticks)
Clique table members: 399.
MIP emphasis: balance optimality and feasibility.
MIP search method: dynamic search.
Parallel mode: none, using 1 thread.
Root relaxation solution time = 0.31 sec. (326.98 ticks)

        Nodes                                         Cuts/
   Node  Left     Objective  IInf  Best Integer    Best Bound    ItCnt     Gap

*     0+    0                            1.0000     5050.0000              --- 
      0     0      100.0000   441        1.0000      100.0000     2293     --- 
      0     0      100.0000   408        1.0000      Cuts: 13     4213     --- 
      0     0      100.0000   383        1.0000       Cuts: 5     6425     --- 
      0     0      100.0000   258        1.0000       Cuts: 6     7146     --- 
*     0+    0                           43.0000      100.0000           132.56%
*     0+    0                           68.0000      100.0000            47.06%
*     0+    0                           81.0000      100.0000            23.46%
      0     0        cutoff             81.0000      100.0000     7146   23.46%
      0     0      100.0000   194       81.0000   ZeroHalf: 2     8721   23.46%
      0     0      100.0000   458       81.0000      Cuts: 11    11932   23.46%
Detecting symmetries...
      0     0      100.0000   433       81.0000      Cuts: 22    15187   23.46%
      0     0      100.0000   447       81.0000      Cuts: 18    17217   23.46%
*     0+    0                           86.0000      100.0000            16.28%
*     0+    0                           91.0000      100.0000             9.89%
      0     0        cutoff             91.0000      100.0000    17217    9.89%
Detecting symmetries...
      0     2      100.0000   224       91.0000      100.0000    17217    9.89%
Elapsed time = 18.76 sec. (22128.97 ticks, tree = 0.01 MB, solutions = 6)
      2     4      100.0000   280       91.0000      100.0000    18812    9.89%
      3     5      100.0000   399       91.0000      100.0000    21509    9.89%
      5     7      100.0000   387       91.0000      100.0000    24203    9.89%
      6     8      100.0000   345       91.0000      100.0000    26935    9.89%
      7     8       99.2368   429       91.0000      100.0000    31132    9.89%
      9     9       99.8539   431       91.0000      100.0000    34026    9.89%
     11    10       99.8950   425       91.0000      100.0000    37925    9.89%
     13    11       99.8878   411       91.0000      100.0000    42254    9.89%
     15    12       99.8796   352       91.0000      100.0000    45512    9.89%
     18    15      100.0000   324       91.0000      100.0000    50412    9.89%
Elapsed time = 24.36 sec. (28826.39 ticks, tree = 0.05 MB, solutions = 6)
     20    17      100.0000   220       91.0000      100.0000    56285    9.89%
     23    19      100.0000   193       91.0000      100.0000    63311    9.89%
     27    21       99.0000   391       91.0000      100.0000    69444    9.89%
     30    23      100.0000   197       91.0000      100.0000    78516    9.89%
     34    26      100.0000   177       91.0000      100.0000    88552    9.89%
     36    27      100.0000   177       91.0000      100.0000    95985    9.89%
     39    28       99.6542   367       91.0000      100.0000   102319    9.89%
     40    29      100.0000   143       91.0000      100.0000   103660    9.89%
     44    32      100.0000   210       91.0000      100.0000   114532    9.89%
     48    34       99.0000   411       91.0000      100.0000   122989    9.89%
Elapsed time = 34.33 sec. (40652.31 ticks, tree = 0.08 MB, solutions = 6)
     51    36      100.0000   204       91.0000      100.0000   130003    9.89%
     56    41      100.0000   155       91.0000      100.0000   132417    9.89%
     61    46      100.0000   146       91.0000      100.0000   134882    9.89%
     65    48      100.0000   200       91.0000      100.0000   141148    9.89%
     68    49       99.6096   366       91.0000      100.0000   148697    9.89%
     70    51      100.0000   147       91.0000      100.0000   152134    9.89%
     74    53       99.3571   371       91.0000      100.0000   161178    9.89%
     78    56       99.2143   340       91.0000      100.0000   167416    9.89%
     81    58       99.4286   351       91.0000      100.0000   173457    9.89%
     85    60    infeasible             91.0000      100.0000   178713    9.89%
Elapsed time = 43.85 sec. (51536.95 ticks, tree = 0.21 MB, solutions = 6)
     89    63      100.0000   205       91.0000      100.0000   184952    9.89%
     92    64       99.0000   345       91.0000      100.0000   191205    9.89%
     96    66       99.6052   369       91.0000      100.0000   199850    9.89%
    101    70       99.0000   213       91.0000      100.0000   205792    9.89%
    106    73       98.6098   290       91.0000      100.0000   212803    9.89%
    110    76       99.0000   195       91.0000      100.0000   220584    9.89%
    114    79       98.3571   312       91.0000      100.0000   225885    9.89%
    119    83       99.0000   180       91.0000      100.0000   232801    9.89%
    121    84       97.9649   277       91.0000      100.0000   237485    9.89%
    127    88       99.0000   185       91.0000      100.0000   244436    9.89%
Elapsed time = 54.00 sec. (62923.63 ticks, tree = 0.28 MB, solutions = 6)
    132    90       98.4804   298       91.0000      100.0000   253541    9.89%
    135    92       98.0000   252       91.0000      100.0000   260463    9.89%
    141    97       98.0000   211       91.0000      100.0000   264906    9.89%
    146   101       98.0000   133       91.0000      100.0000   272888    9.89%
    150   103       97.0000   166       91.0000      100.0000   279549    9.89%
    155   107       98.0000   166       91.0000      100.0000   285983    9.89%
*   160+  108                           94.0000      100.0000             6.38%
    160   110       97.0000   181       94.0000      100.0000   293383    6.38%
    165   113       97.0000   106       94.0000      100.0000   301309    6.38%
    170   116       97.0000   175       94.0000      100.0000   310013    6.38%
    175   119       96.3750   200       94.0000      100.0000   317531    6.38%
Elapsed time = 63.79 sec. (73720.01 ticks, tree = 0.33 MB, solutions = 7)
    180   123       97.0000   151       94.0000      100.0000   323385    6.38%
    185   127       97.0000   133       94.0000      100.0000   331091    6.38%
    190   130       97.0000   174       94.0000      100.0000   339865    6.38%
    196   134       97.0000   174       94.0000      100.0000   348365    6.38%
    202   137       97.0000   187       94.0000      100.0000   358618    6.38%
    208   140       95.0000   216       94.0000      100.0000   368284    6.38%
    211   141       95.0000   193       94.0000      100.0000   373308    6.38%
    219   146       96.0000   109       94.0000      100.0000   380466    6.38%
    222   146       95.0000   153       94.0000      100.0000   384798    6.38%
    229   152       95.0000    32       94.0000      100.0000   394621    6.38%
Elapsed time = 73.81 sec. (84511.38 ticks, tree = 0.37 MB, solutions = 7)
    236   151      100.0000   160       94.0000      100.0000   407705    6.38%
    239   152       98.7273   280       94.0000      100.0000   415519    6.38%
    243   155       99.1905   310       94.0000      100.0000   422088    6.38%
    247   156       98.0000   197       94.0000      100.0000   431340    6.38%
    252   160       97.7917   268       94.0000      100.0000   437965    6.38%
    257   164       98.0000   130       94.0000      100.0000   443368    6.38%
    262   168       98.0000   211       94.0000      100.0000   450133    6.38%
    267   173       98.0000   161       94.0000      100.0000   457115    6.38%
    272   176       98.0000   162       94.0000      100.0000   463609    6.38%
    277   179       98.0000   191       94.0000      100.0000   471592    6.38%
Elapsed time = 83.82 sec. (95840.85 ticks, tree = 0.40 MB, solutions = 7)
    282   183       98.0000   156       94.0000      100.0000   478917    6.38%
    289   186       97.0000   197       94.0000      100.0000   489230    6.38%
    296   192       97.0000   180       94.0000      100.0000   497292    6.38%
    303   196       97.0000   134       94.0000      100.0000   505694    6.38%
    310   200       97.0000   122       94.0000      100.0000   514617    6.38%
    317   203       96.0000   161       94.0000      100.0000   522892    6.38%
    326   206        cutoff             94.0000      100.0000   531434    6.38%
    334   207    infeasible             94.0000      100.0000   540860    6.38%
    342   206       99.0000   363       94.0000      100.0000   554758    6.38%
    345   208       98.0000   313       94.0000      100.0000   562410    6.38%
Elapsed time = 93.97 sec. (106871.79 ticks, tree = 0.43 MB, solutions = 7)
    351   212       96.0000   201       94.0000      100.0000   568574    6.38%
    358   219       96.0000   130       94.0000      100.0000   573348    6.38%
    364   224       95.0000   135       94.0000      100.0000   577138    6.38%
    370   225       98.9778   324       94.0000      100.0000   585825    6.38%
    376   229       98.0000   263       94.0000      100.0000   591827    6.38%
    381   233       97.0000   223       94.0000      100.0000   599006    6.38%
    389   237       95.0000   155       94.0000      100.0000   606932    6.38%
    396   240       95.0000   101       94.0000      100.0000   615763    6.38%
    405   239    infeasible             94.0000      100.0000   627652    6.38%
    408   241       99.0000   130       94.0000      100.0000   636207    6.38%
Elapsed time = 104.01 sec. (117579.56 ticks, tree = 0.47 MB, solutions = 7)
    413   245       98.0000   215       94.0000      100.0000   641617    6.38%
    420   250       96.0000   201       94.0000      100.0000   648801    6.38%
    428   255       95.0000    34       94.0000      100.0000   657772    6.38%
*   429   233      integral     0       95.0000      100.0000   657813    5.26%
    432   234       99.0000   401       95.0000      100.0000   664057    5.26%
    436   238       99.0000   215       95.0000      100.0000   668905    5.26%
    441   241       99.0000   220       95.0000      100.0000   675964    5.26%
    445   244       99.0000   186       95.0000      100.0000   682944    5.26%
    450   248       99.0000   145       95.0000      100.0000   689992    5.26%
    455   251       98.0769   246       95.0000      100.0000   698169    5.26%
    476   268       97.0000   147       95.0000      100.0000   723542    5.26%
Elapsed time = 116.68 sec. (131563.50 ticks, tree = 0.51 MB, solutions = 8)
    507   281    infeasible             95.0000      100.0000   760265    5.26%
    521   293       98.0000   196       95.0000      100.0000   780212    5.26%
    549   307    infeasible             95.0000      100.0000   811888    5.26%
    565   317       97.0000   105       95.0000      100.0000   832413    5.26%
    585   325       97.0000   338       95.0000      100.0000   858163    5.26%
    606   337       97.0000   312       95.0000      100.0000   884084    5.26%
    626   351       98.0000   246       95.0000      100.0000   909674    5.26%
    640   361       98.0000   202       95.0000      100.0000   934372    5.26%
    657   374       98.0000   173       95.0000      100.0000   958889    5.26%
    674   386       97.2857   248       95.0000      100.0000   985494    5.26%
Elapsed time = 152.30 sec. (171030.39 ticks, tree = 0.64 MB, solutions = 8)
    693   396       96.0000   176       95.0000      100.0000  1011840    5.26%
    713   403       96.0000    78       95.0000      100.0000  1046018    5.26%
    727   413       98.0000   176       95.0000      100.0000  1064438    5.26%
    741   420       99.0000   383       95.0000      100.0000  1089712    5.26%
    758   437       99.0000   252       95.0000      100.0000  1104745    5.26%
    796   449       99.0000   432       95.0000      100.0000  1144308    5.26%
    810   461       97.0000   169       95.0000      100.0000  1157269    5.26%
    831   475       96.0000    61       95.0000      100.0000  1184527    5.26%
    844   481       99.0000   276       95.0000      100.0000  1206472    5.26%
    861   496       97.0000   191       95.0000      100.0000  1227055    5.26%
Elapsed time = 187.56 sec. (210490.73 ticks, tree = 0.74 MB, solutions = 8)
    886   511      100.0000   188       95.0000      100.0000  1253771    5.26%
    897   519      100.0000   184       95.0000      100.0000  1276723    5.26%
    905   524      100.0000   226       95.0000      100.0000  1302474    5.26%
    914   530       99.0000   195       95.0000      100.0000  1327114    5.26%
    924   537       99.0000   236       95.0000      100.0000  1348371    5.26%
    940   548       98.0000   344       95.0000      100.0000  1371369    5.26%
    955   561       98.0000   262       95.0000      100.0000  1395720    5.26%
    974   572       99.6154   359       95.0000      100.0000  1423745    5.26%
    989   586       98.0000   141       95.0000      100.0000  1446066    5.26%
   1007   593       99.0000   265       95.0000      100.0000  1475032    5.26%
Elapsed time = 223.19 sec. (251093.37 ticks, tree = 0.90 MB, solutions = 8)
   1018   601       99.0000   296       95.0000      100.0000  1490036    5.26%

Performing restart 1

Repeating presolve.
Tried aggregator 1 time.
MIP Presolve eliminated 0 rows and 95 columns.
MIP Presolve modified 7385 coefficients.
Reduced MIP has 613 rows, 2505 columns, and 24339 nonzeros.
Reduced MIP has 2505 binaries, 0 generals, 0 SOSs, and 0 indicators.
Presolve time = 0.02 sec. (22.24 ticks)
Tried aggregator 1 time.
Reduced MIP has 613 rows, 2505 columns, and 24339 nonzeros.
Reduced MIP has 2505 binaries, 0 generals, 0 SOSs, and 0 indicators.
Presolve time = 0.02 sec. (16.67 ticks)
Represolve time = 0.11 sec. (84.68 ticks)
   1021     0      100.0000   428       95.0000       Cuts: 6  1500976    5.26%
   1021     0      100.0000   495       95.0000      Cuts: 23  1503924    5.26%
   1021     0      100.0000   464       95.0000      Cuts: 14  1507528    5.26%
   1021     0      100.0000   374       95.0000      Cuts: 12  1511623    5.26%
   1021     0       99.9402   556       95.0000      Cuts: 35  1517259    5.20%
   1021     0       99.0000   556       95.0000     Cuts: 131  1519317    4.21%
   1021     0       99.0000   592       95.0000     Cuts: 100  1521937    4.21%
   1021     2       99.0000   231       95.0000       99.0000  1521937    4.21%
   1029     9       99.0000   309       95.0000       99.0000  1541607    4.21%
   1046    19       99.0000   307       95.0000       99.0000  1557430    4.21%
   1060    32       98.6667   250       95.0000       99.0000  1579074    4.21%
   1080    49       99.0000   244       95.0000       99.0000  1606493    4.21%
   1107    71       98.0000   159       95.0000       99.0000  1632113    4.21%
   1136    95       98.0000   195       95.0000       99.0000  1649039    4.21%
   1182   130    infeasible             95.0000       99.0000  1658924    4.21%
   1214   150       98.0000   166       95.0000       99.0000  1684559    4.21%
Elapsed time = 291.89 sec. (326651.11 ticks, tree = 0.69 MB, solutions = 8)
   1244   176       98.0000   194       95.0000       99.0000  1701298    4.21%
*  1271   161      integral     0       96.0000       99.0000  1711726    3.12%
   1280   169       97.0000   213       96.0000       99.0000  1720182    3.12%
   1312   181       98.9506   253       96.0000       99.0000  1749335    3.12%
*  1321+  136                           97.0000       99.0000             2.06%
   1321   135       97.0000     0       97.0000       99.0000  1754564    2.06%
   1345   141       98.0000   190       97.0000       99.0000  1782315    2.06%
   1368   147       99.0000   206       97.0000       99.0000  1809421    2.06%
   1388   158       98.0000   164       97.0000       99.0000  1836899    2.06%
   1415   159    infeasible             97.0000       99.0000  1867205    2.06%
   1441   173       99.0000   174       97.0000       99.0000  1889268    2.06%
   1483   194       98.0000   210       97.0000       99.0000  1911268    2.06%
Elapsed time = 333.08 sec. (369052.75 ticks, tree = 0.94 MB, solutions = 10)
   1523   215       98.0000   199       97.0000       99.0000  1931390    2.06%
   1555   225       99.0000   120       97.0000       99.0000  1954468    2.06%
   1593   248       98.0000   175       97.0000       99.0000  1972277    2.06%
   1637   287       98.0000   223       97.0000       99.0000  1985096    2.06%
   1684   303        cutoff             97.0000       99.0000  2012527    2.06%
   1708   309       99.0000   214       97.0000       99.0000  2039649    2.06%
   1750   327       98.0000   175       97.0000       99.0000  2063104    2.06%
   1792   340        cutoff             97.0000       99.0000  2090222    2.06%
   1829   358        cutoff             97.0000       99.0000  2107198    2.06%
   1863   378       98.0000   209       97.0000       99.0000  2126050    2.06%
Elapsed time = 372.15 sec. (407802.62 ticks, tree = 2.14 MB, solutions = 10)
   1911   394       98.0000   210       97.0000       99.0000  2147958    2.06%
   1947   394       98.0000   174       97.0000       99.0000  2182875    2.06%
   1976   403       98.0000   165       97.0000       99.0000  2211931    2.06%
   2009   415        cutoff             97.0000       99.0000  2236245    2.06%
   2051   435       98.0000   210       97.0000       99.0000  2256328    2.06%
   2086   446        cutoff             97.0000       99.0000  2279648    2.06%
   2121   474       98.0000   163       97.0000       99.0000  2287160    2.06%
   2163   499       98.0000   207       97.0000       99.0000  2305525    2.06%
   2194   512    infeasible             97.0000       99.0000  2329570    2.06%
   2224   519    infeasible             97.0000       99.0000  2360164    2.06%
Elapsed time = 421.23 sec. (456715.57 ticks, tree = 3.09 MB, solutions = 10)
   2256   522       98.0000   154       97.0000       99.0000  2390437    2.06%
   2283   537       98.0000   144       97.0000       99.0000  2411089    2.06%
   2310   544    infeasible             97.0000       99.0000  2438063    2.06%
   2342   551       98.0000   226       97.0000       99.0000  2468768    2.06%
   2374   562       98.0000   183       97.0000       99.0000  2493619    2.06%
   2397   577       99.0000   196       97.0000       99.0000  2511197    2.06%
   2421   592       99.0000   129       97.0000       99.0000  2529165    2.06%
   2449   607       99.0000   145       97.0000       99.0000  2545364    2.06%
   2484   593    infeasible             97.0000       99.0000  2576052    2.06%
   2507   593       98.0000   268       97.0000       99.0000  2604930    2.06%
Elapsed time = 458.57 sec. (495764.49 ticks, tree = 3.58 MB, solutions = 10)
   2541   605       98.0000   184       97.0000       99.0000  2621980    2.06%
   2561   612       98.0000   165       97.0000       99.0000  2649806    2.06%
   2581   619    infeasible             97.0000       99.0000  2676416    2.06%
   2600   627       98.0000   219       97.0000       99.0000  2699697    2.06%
   2632   645       98.0000   137       97.0000       99.0000  2718553    2.06%
   2659   648       99.0000   178       97.0000       99.0000  2744665    2.06%
   2689   653    infeasible             97.0000       99.0000  2769800    2.06%
   2712   661       98.0000   226       97.0000       99.0000  2793197    2.06%
   2736   664    infeasible             97.0000       99.0000  2827381    2.06%
   2762   689       98.0000   251       97.0000       99.0000  2838765    2.06%
Elapsed time = 495.51 sec. (534832.70 ticks, tree = 4.19 MB, solutions = 10)
   2790   713       98.0000   288       97.0000       99.0000  2849826    2.06%
   2813   718    infeasible             97.0000       99.0000  2872835    2.06%
   2850   725       98.0000   153       97.0000       99.0000  2899571    2.06%
   2882   730       98.0000   118       97.0000       99.0000  2927643    2.06%
   2906   733       98.0000   202       97.0000       99.0000  2960087    2.06%
   2924   739       99.0000   237       97.0000       99.0000  2986321    2.06%
   2952   751       98.0000   143       97.0000       99.0000  3008408    2.06%
   2980   759       99.0000   155       97.0000       99.0000  3037079    2.06%
   3028   766       98.0000   227       97.0000       99.0000  3051410    2.06%
   3061   771    infeasible             97.0000       99.0000  3071237    2.06%
Elapsed time = 533.54 sec. (574234.04 ticks, tree = 4.74 MB, solutions = 10)
   3086   774       98.0000   183       97.0000       99.0000  3101784    2.06%
   3117   783        cutoff             97.0000       99.0000  3125701    2.06%
Starting limited solution polishing.
   3147   791    infeasible             97.0000       99.0000  3151931    2.06%
   3181   806       98.0000   250       97.0000       99.0000  3171767    2.06%
   3215   809    infeasible             97.0000       99.0000  3193851    2.06%
   3242   818       98.0000   192       97.0000       99.0000  3214791    2.06%
   3275   833       98.0000   200       97.0000       99.0000  3234633    2.06%
   3295   840       99.0000   266       97.0000       99.0000  3256935    2.06%
   3330   857        cutoff             97.0000       99.0000  3273782    2.06%
   3365   870    infeasible             97.0000       99.0000  3299192    2.06%
Elapsed time = 570.79 sec. (612731.12 ticks, tree = 5.40 MB, solutions = 10)
   3386   879       98.0000   204       97.0000       99.0000  3322054    2.06%
   3412   891       99.0000   243       97.0000       99.0000  3353469    2.06%
   3443   897       98.0000   231       97.0000       99.0000  3375835    2.06%
   3479   901       98.0000   196       97.0000       99.0000  3414623    2.06%
   3531   908    infeasible             97.0000       99.0000  3456643    2.06%
   3556   919       99.0000   220       97.0000       99.0000  3486810    2.06%
   3583   925       98.0000    68       97.0000       99.0000  3512769    2.06%

Clique cuts applied:  60
Cover cuts applied:  4
Mixed integer rounding cuts applied:  7
Zero-half cuts applied:  34
Gomory fractional cuts applied:  3

Root node processing (before b&c):
  Real time             =   18.73 sec. (22101.31 ticks)
Sequential b&c:
  Real time             =  581.27 sec. (620736.66 ticks)
                          ------------
Total (root+branch&cut) =  600.00 sec. (642837.97 ticks)
Primal:	97
Dual:	99
Status:	Feasible
Time:	600.01
Sequence:
	15
	4
	0
	14
	3
	6
	1
	7
	21
	4
	0
	12
	10
	6
	12
	20
	4
	18
	8
	1
	23
	10
	6
	17
	7
	19
	4
	0
	12
	1
	24
	15
	4
	0
	12
	19
	8
	1
	9
	10
	14
	17
	7
	17
	4
	16
	4
	17
	7
	1
	22
	3
	6
	1
	7
	19
	4
	5
	6
	1
	13
	1
	6
	3
	6
	1
	13
	17
	4
	5
	4
	19
	8
	1
	9
	10
	4
	2
	10
	4
	12
	0
	6
	18
	24
	1
	9
	0
	4
	16
	12
	0
	4
	9
	16
	4
	15
